10 33 6 22 60 10 1
0 677908 6150220 677908 6150220 0
1 470214 6227128 704974 6187689 15
2 527566 6151530 725920 6171153 16
3 574470 6220489 721735 6172681 10
4 615720 6254287 635549 6078720 11
5 574331 6229153 642394 6087294 5
6 572933 6221459 720445 6174094 16
7 534724 6176503 667347 6200876 16
8 525977 6100069 720838 6176573 11
9 603167 6256910 698384 6205845 10
10 554891 6232852 710329 6166924 14






































































































